 vasp.6.4.2 20Jul23 (build Mar 06 2024 09:06:46) complex

 executed on             LinuxIFC date 2024.03.07  11:39:32

 INCAR:
   SYSTEM = Au_FRESH_TRAIN
   ISMEAR = 0
   SIGMA = 0.05
   IVDW = 12
   ENCUT = 450
   PREC = Accurate
   LASPH = TRUE
   NELM = 400
   NELMIN = 5
   EDIFF = 1E-6
   IBRION = 0
   ISIF = 3
   NSW = 0
   EDIFFG = -0.01
   ALGO = Fast
   LREAL = Auto
   LWAVE = False
   LCHARG = False
   AMIN = 0.01
   ADDGRID = TRUE
   NCORE = 10

 POTCAR:    PAW_PBE Au 04Oct2007
|           W    W    AA    RRRRR   N    N  II  N    N   GGGG   !!!           |
|           W    W   A  A   R    R  NN   N  II  NN   N  G    G  !!!           |
|           W    W  A    A  R    R  N N  N  II  N N  N  G       !!!           |
|           W WW W  AAAAAA  RRRRR   N  N N  II  N  N N  G  GGG   !            |
|           WW  WW  A    A  R   R   N   NN  II  N   NN  G    G                |
|           W    W  A    A  R    R  N    N  II  N    N   GGGG   !!!           |
|     For optimal performance we recommend to set                             |
|       NCORE = 2 up to number-of-cores-per-socket                            |
|     This setting can greatly improve the performance of VASP for DFT.       |
|     The default, NCORE=1 might be grossly inefficient on modern             |
|     multi-core architectures or massively parallel machines. Do your        |
|     Unfortunately you need to use the default for GW and RPA                |
|     calculations (for HF NCORE is supported but not extensively tested      |
|     yet).                                                                   |

 POTCAR:    PAW_PBE Au 04Oct2007
   VRHFIN =Au: s1d10

   TITEL  = PAW_PBE Au 04Oct2007
   POMASS =  196.966; ZVAL   =   11.000    mass and valenz
   ENMAX  =  229.943; ENMIN  =  172.457 eV

 Optimization of the real space projectors (new method)

 maximal supplied QI-value         = 15.12
 optimisation between [QCUT,QGAM] = [ 10.73, 21.62] = [ 32.26,130.87] Ry
 Optimized for a Real-space Cutoff    1.51 Angstroem

   l    n(q)    QCUT    max X(q) W(low)/X(q) W(high)/X(q)  e(spline)
   2      9    10.734    60.898    0.91E-04    0.24E-03    0.27E-06
   2      9    10.734    58.894    0.92E-04    0.24E-03    0.27E-06
   0     10    10.734   109.617    0.32E-04    0.87E-04    0.14E-06
   0     10    10.734    75.026    0.29E-04    0.84E-04    0.14E-06
   1      9    10.734    16.344    0.16E-03    0.95E-04    0.12E-06
   1      9    10.734    10.160    0.13E-03    0.80E-04    0.97E-07
  PAW_PBE Au 04Oct2007                  :

 POSCAR: System 1159
  positions in cartesian coordinates
 exchange correlation table for  LEXCH =        8
   RHO(1)=    0.500       N(1)  =     2000
   RHO(2)=  100.500       N(2)  =     4000

 VTST: version 4.1, (05/19/21)

 CHAIN: initializing optimizer

 OPT: Using VASP Dynamics algorithm
 CHAIN: Read ICHAIN            0

 POSCAR: System 1159
  positions in cartesian coordinates

 ion  position               nearest neighbor table
   1  0.010  0.059  0.117-  76 2.67  26 2.78  11 2.79  10 2.85   3 2.87  83 2.94  75 2.95   2 2.99
                           100 3.00  34 3.00   4 3.01  28 3.11
   2  0.000  0.222  0.294-  76 2.80   8 2.83  80 2.89   5 2.89  13 2.90  17 2.93  87 2.96   1 2.99
                            75 3.02   3 3.11  15 3.12   4 3.19
   3  0.186  0.054  0.269-   4 2.75  37 2.79  28 2.79  26 2.80  38 2.87   1 2.87   8 2.92  41 2.92
                            32 3.07   5 3.10   2 3.11  62 3.14
   4  0.192  0.221  0.122-  23 2.72   3 2.75  37 2.77  49 2.77  46 2.82  38 2.88  15 3.00   1 3.01
                            11 3.07  13 3.15   2 3.19  10 3.20
   5  0.005  0.042  0.442-  26 2.66  32 2.78  79 2.87   2 2.89  75 2.91  80 2.95   8 2.97  30 2.99
                             6 3.03   7 3.05 104 3.05   3 3.10
   6  0.005  0.211  0.619-  79 2.71  21 2.77  84 2.82  91 2.84   9 2.92  80 2.94  12 2.95  17 3.00
                             8 3.03   7 3.03   5 3.03  19 3.07
   7  0.179  0.038  0.616-  32 2.73   9 2.75  36 2.85  45 2.89  30 2.89  66 2.90  42 3.00  12 3.00
                            41 3.01   6 3.03   5 3.05   8 3.05
   8  0.174  0.213  0.443-   2 2.83  17 2.86  38 2.89  53 2.90  42 2.91  15 2.92   3 2.92  19 2.97
                             5 2.97  41 2.99   6 3.03   7 3.05
   9  0.033  0.044  0.783-  36 2.74   7 2.75  11 2.77  34 2.86  79 2.88  30 2.88 108 2.88  12 2.92
                             6 2.92  10 2.97  83 3.05  84 3.12
  10  0.002  0.215  0.948-  23 2.67  84 2.80   1 2.85  95 2.85  83 2.88  76 2.89  21 2.93   9 2.97
                            11 3.04  13 3.14  12 3.16   4 3.20
  11  0.169  0.035  0.960-  34 2.72  28 2.77   9 2.77   1 2.79  37 2.84  36 2.94  70 2.95  45 2.98
                            10 3.04  46 3.06   4 3.07  12 3.30
  12  0.186  0.223  0.773-  57 2.72  21 2.78  19 2.80  42 2.82  45 2.86  46 2.87   9 2.92  23 2.92
                             6 2.95   7 3.00  10 3.16  11 3.30
  13  0.003  0.390  0.131-  88 2.78  16 2.78  14 2.80  23 2.89   2 2.90  87 2.95  76 2.97  95 2.98
                            15 3.01  22 3.02  10 3.14   4 3.15
  14  0.009  0.551  0.289-  13 2.80  88 2.83  16 2.84  29 2.88  99 2.88  20 2.89  17 2.90  87 2.92
                            27 2.92  15 2.93  25 3.02  92 3.17
  15  0.186  0.393  0.291-  20 2.72  16 2.75  50 2.78  17 2.86  53 2.87  49 2.92   8 2.92  14 2.93
                             4 3.00  38 3.01  13 3.01   2 3.12
  16  0.170  0.540  0.126-  15 2.75  13 2.78  14 2.84  58 2.86  27 2.88  22 2.91  25 2.94  61 2.94
                            50 3.00  23 3.01  49 3.03  35 3.18
  17  0.026  0.390  0.458-  19 2.74  20 2.75   8 2.86  15 2.86  14 2.90  18 2.92  91 2.92   2 2.93
                             6 3.00  87 3.11  92 3.13  80 3.30
  18  0.008  0.563  0.617-  33 2.60 103 2.75  29 2.76  31 2.81  96 2.87  24 2.87  17 2.92  20 3.02
                            92 3.04  21 3.06  19 3.13  91 3.15
  19  0.184  0.382  0.612-  17 2.74  24 2.74  12 2.80  42 2.83  54 2.83  21 2.86  53 2.90  20 2.91
                            57 2.94   8 2.97   6 3.07  18 3.13
  20  0.182  0.548  0.446-  15 2.72  17 2.75  31 2.86  65 2.88  50 2.89  14 2.89  19 2.91  27 2.92
                            54 2.95  18 3.02  53 3.09  29 3.16
  21  0.018  0.372  0.773-   6 2.77  12 2.78  24 2.83  19 2.86  84 2.87  23 2.90  10 2.93  91 3.02
                            96 3.04  18 3.06  22 3.10  95 3.12
  22  0.017  0.550  0.948- 107 2.85  96 2.86  33 2.87  35 2.88  23 2.89  16 2.91  24 2.97  25 2.99
                            95 3.01  13 3.02  88 3.07  21 3.10
  23  0.158  0.363  0.960-  10 2.67   4 2.72  13 2.89  46 2.89  22 2.89  21 2.90  12 2.92  58 2.95
                            16 3.01  57 3.07  24 3.17  49 3.18
  24  0.178  0.535  0.772-  69 2.69  19 2.74  54 2.77  57 2.78  58 2.82  21 2.83  33 2.86  18 2.87
                            22 2.97  23 3.17  35 3.20  31 3.20
  25  0.019  0.722  0.116- 100 2.80 107 2.80  35 2.82  27 2.85  34 2.90  28 2.90  16 2.94  99 2.96
                            22 2.99  88 3.00  26 3.01  14 3.02
  26  0.018  0.903  0.278-   5 2.66 100 2.75   1 2.78   3 2.80  75 2.83  28 2.88  32 2.89  25 3.01
                            27 3.08  99 3.18  29 3.23 104 3.25
  27  0.180  0.714  0.280-  61 2.75  25 2.85  28 2.85  16 2.88  20 2.92  14 2.92  50 2.98  62 3.00
                            65 3.04  32 3.07  26 3.08  29 3.22
  28  0.190  0.883  0.123-  70 2.71  11 2.77  61 2.79   3 2.79  27 2.85  37 2.87  26 2.88  62 2.90
                            25 2.90  35 2.95  34 3.11   1 3.11
  29  0.987  0.713  0.454-  18 2.76 104 2.79  99 2.81 103 2.82  31 2.84  14 2.88  30 2.93  92 2.99
                            20 3.16  32 3.16  27 3.22  26 3.23
  30  0.007  0.880  0.621- 108 2.66  79 2.70  31 2.79   9 2.88   7 2.89  32 2.91  33 2.92  29 2.93
                            36 2.95   5 2.99 104 3.02 103 3.08
  31  0.168  0.724  0.596-  32 2.71  30 2.79  65 2.79  18 2.81  66 2.84  29 2.84  20 2.86  33 2.90
                            36 3.01  69 3.07  54 3.11  24 3.20
  32  0.171  0.890  0.454-  31 2.71   7 2.73   5 2.78  66 2.85  41 2.89  26 2.89  30 2.91  27 3.07
                             3 3.07  65 3.09  29 3.16  62 3.22
  33  0.019  0.702  0.774-  18 2.60  96 2.78  24 2.86  22 2.87  35 2.87  31 2.90  30 2.92 108 2.93
                            36 2.97 103 2.98 107 3.08  34 3.14
  34  0.009  0.885  0.949-  11 2.72 108 2.73  83 2.75  35 2.84 107 2.86   9 2.86  25 2.90  36 2.98
                           100 2.98   1 3.00  28 3.11  33 3.14
  35  0.171  0.724  0.948-  70 2.78  69 2.82  25 2.82  36 2.82  34 2.84  33 2.87  22 2.88  58 2.94
                            28 2.95  61 2.98  16 3.18  24 3.20
  36  0.181  0.879  0.782-   9 2.74  35 2.82  45 2.83   7 2.85  69 2.90  11 2.94  30 2.95  33 2.97
                            34 2.98  66 2.98  31 3.01  70 3.03
  37  0.343  0.056  0.108-  47 2.74   4 2.77   3 2.79  40 2.80  46 2.80  11 2.84  28 2.87  70 2.90
                            38 3.02  64 3.12  62 3.12  39 3.28
  38  0.351  0.215  0.292-  53 2.70  41 2.82  49 2.87   3 2.87   4 2.88   8 2.89  40 2.94  44 2.98
                            39 3.01  15 3.01  37 3.02  51 3.16
  39  0.520  0.041  0.304-  41 2.74  44 2.78  98 2.80  77 2.82  62 2.86  68 2.97  74 2.97  73 2.99
                            38 3.01  40 3.03  37 3.28  64 3.39
  40  0.515  0.202  0.120-  37 2.80  74 2.81  59 2.87  73 2.87  47 2.94  38 2.94  49 2.95  85 3.02
                            51 3.03  39 3.03  46 3.07  82 3.08
  41  0.347  0.044  0.441-  39 2.74  38 2.82  32 2.89  62 2.92   3 2.92  66 2.94  44 2.97  42 2.97
                             8 2.99   7 3.01  68 3.14  43 3.16
  42  0.342  0.217  0.606-  53 2.68  55 2.82  12 2.82  19 2.83   8 2.91  44 2.92  41 2.97  43 3.00
                             7 3.00  57 3.06  45 3.08  48 3.15
  43  0.506  0.043  0.639-  81 2.74  45 2.80  48 2.82  72 2.87  78 2.90  66 2.96  42 3.00  44 3.02
                            68 3.02  77 3.13 102 3.15  41 3.16
  44  0.525  0.204  0.458-  78 2.72  77 2.77  39 2.78  89 2.91  42 2.92  53 2.93  41 2.97  38 2.98
                            43 3.02  74 3.02  55 3.02  51 3.22
  45  0.336  0.048  0.788-  43 2.80  36 2.83  12 2.86  48 2.86  46 2.87   7 2.89  47 2.91  72 2.94
                            11 2.98  42 3.08  70 3.13  66 3.16
  46  0.338  0.215  0.948-  59 2.76  48 2.78  37 2.80  57 2.81   4 2.82  12 2.87  45 2.87  23 2.89
                            49 2.99  47 3.03  11 3.06  40 3.07
  47  0.501  0.033  0.955-  64 2.71  37 2.74  70 2.84  48 2.85  45 2.91  72 2.94  40 2.94  81 2.96
                            73 3.02  46 3.03 106 3.04  82 3.18
  48  0.506  0.204  0.800-  59 2.68  46 2.78  43 2.82  47 2.85  45 2.86  81 2.96  57 3.00  78 3.06
                            82 3.07  42 3.15  55 3.19  93 3.27
  49  0.352  0.377  0.126-   4 2.77  52 2.82  38 2.87  50 2.89  15 2.92  59 2.92  40 2.95  51 2.96
                            58 2.99  46 2.99  16 3.03  23 3.18
  50  0.351  0.546  0.287-  63 2.77  15 2.78  20 2.89  49 2.89  56 2.90  61 2.90  52 2.96  65 2.97
                            27 2.98  16 3.00  53 3.02  51 3.02
  51  0.538  0.389  0.277-  86 2.73  52 2.75  56 2.78  74 2.80  85 2.84  89 2.93  49 2.96  50 3.02
[...]
   -.179E+02 -.246E+02 -.736E+01   0.180E+02 0.251E+02 0.707E+01   0.394E+00 -.784E+00 0.154E+00   -.430E-05 0.117E-03 0.155E-04
   -.313E+02 -.145E+02 0.585E+01   0.309E+02 0.149E+02 -.555E+01   0.658E+00 -.272E+00 -.334E+00   0.174E-04 0.886E-05 -.122E-04
   -.113E+02 0.267E+01 -.671E+02   0.115E+02 -.260E+01 0.666E+02   -.213E+00 -.140E+00 0.140E+01   0.617E-04 0.571E-04 -.104E-03
   0.699E+02 -.283E+02 -.201E+02   -.693E+02 0.286E+02 0.200E+02   -.166E+01 -.154E+00 0.346E+00   0.989E-04 0.294E-04 0.157E-04
   -.857E+01 -.261E+02 -.744E+01   0.860E+01 0.261E+02 0.700E+01   -.126E+00 0.782E+00 0.106E+01   0.988E-05 -.517E-04 -.914E-04
   -.389E+02 0.212E+01 0.485E+02   0.385E+02 -.214E+01 -.482E+02   0.121E+01 0.748E-01 -.946E+00   -.583E-04 -.515E-04 0.635E-04
   -.402E+02 -.628E+02 0.485E+02   0.406E+02 0.627E+02 -.484E+02   -.158E-01 0.985E+00 -.449E+00   0.123E-04 -.117E-03 -.329E-04
   0.221E+02 0.525E+02 -.589E+01   -.226E+02 -.525E+02 0.549E+01   0.286E+00 -.438E+00 0.677E+00   -.156E-04 -.204E-04 -.102E-03
   0.230E+02 -.741E+02 -.152E+02   -.223E+02 0.742E+02 0.152E+02   -.132E+01 0.726E+00 0.258E+00   0.148E-03 -.335E-04 -.163E-04
   -.156E+02 -.126E+02 -.172E+02   0.153E+02 0.127E+02 0.173E+02   0.403E+00 -.546E+00 0.622E-01   -.100E-03 0.430E-04 -.960E-05
   -.249E+02 -.803E+02 0.188E+02   0.244E+02 0.799E+02 -.188E+02   0.105E+01 0.136E+01 -.490E+00   -.495E-04 -.525E-04 0.745E-04
   0.146E+02 0.530E+02 -.234E+02   -.142E+02 -.529E+02 0.231E+02   -.835E+00 -.107E+01 0.570E+00   0.899E-04 0.122E-03 -.196E-04
   0.729E-01 0.668E+02 0.267E+02   -.216E+00 -.664E+02 -.265E+02   0.990E-01 -.125E+01 -.482E+00   0.325E-04 0.469E-04 0.441E-04
   -.776E+01 -.175E+02 -.302E+02   0.794E+01 0.177E+02 0.302E+02   -.253E+00 0.166E+00 0.459E+00   0.140E-03 -.294E-04 -.772E-04
   0.177E+02 0.664E+02 0.355E+02   -.173E+02 -.659E+02 -.353E+02   -.589E+00 -.155E+01 -.538E+00   0.296E-04 0.103E-03 0.450E-05
   -.292E+02 0.327E+01 0.418E+02   0.292E+02 -.346E+01 -.421E+02   0.399E+00 0.602E+00 -.416E+00   -.574E-04 -.479E-04 0.728E-04
   0.559E+02 0.342E+02 0.138E+02   -.554E+02 -.340E+02 -.134E+02   -.162E+01 -.454E+00 -.552E+00   0.173E-03 0.196E-04 -.276E-04
   0.300E+01 0.898E+02 0.311E+02   -.303E+01 -.895E+02 -.311E+02   0.166E+00 -.223E+01 -.908E+00   0.287E-04 0.198E-03 0.760E-04
   0.246E+02 0.219E+02 0.298E+02   -.248E+02 -.218E+02 -.299E+02   0.132E-01 -.219E+00 -.306E+00   0.754E-04 -.688E-05 0.235E-04
   -.814E+01 -.435E+02 -.979E+00   0.814E+01 0.437E+02 0.846E+00   0.218E+00 0.598E+00 0.572E+00   -.251E-04 -.666E-05 -.706E-04
   0.607E+02 -.350E+02 -.306E+02   -.602E+02 0.347E+02 0.306E+02   -.107E+01 0.102E+01 0.411E+00   0.664E-04 -.937E-04 0.608E-04
   0.113E+02 0.533E+02 -.136E+02   -.113E+02 -.532E+02 0.134E+02   -.346E-01 -.581E+00 0.347E+00   0.117E-04 -.266E-04 0.613E-05
   -.767E+01 -.322E+02 -.189E+02   0.691E+01 0.315E+02 0.195E+02   0.125E+01 0.172E+01 -.720E+00   -.948E-04 -.142E-03 0.434E-04
   0.491E+02 -.103E+01 -.442E+02   -.491E+02 0.846E+00 0.441E+02   -.103E+01 0.276E+00 0.728E+00   0.116E-03 -.869E-04 -.177E-04
   -.213E+02 0.221E+02 -.332E+02   0.216E+02 -.217E+02 0.330E+02   -.976E-01 -.667E+00 0.507E+00   0.494E-04 0.433E-05 -.234E-04
   -.157E+02 0.740E+02 -.564E+02   0.161E+02 -.735E+02 0.564E+02   -.209E+00 -.202E+01 0.177E+00   0.620E-04 0.234E-03 0.596E-05
   0.214E+02 -.384E+02 -.808E+02   -.214E+02 0.385E+02 0.804E+02   -.305E+00 0.183E+00 0.134E+01   0.664E-04 0.975E-05 -.578E-04
   0.324E+02 -.253E+01 -.562E+02   -.323E+02 0.264E+01 0.566E+02   -.955E+00 -.131E+00 0.105E+00   0.157E-03 0.695E-04 0.673E-04
   -.512E+02 -.368E+02 0.808E+02   0.504E+02 0.368E+02 -.810E+02   0.131E+01 0.343E+00 -.612E+00   -.429E-04 0.787E-04 0.727E-04
   0.718E+01 0.714E+01 0.609E+02   -.735E+01 -.720E+01 -.607E+02   0.657E+00 -.438E+00 -.104E+01   0.323E-04 0.475E-04 0.167E-04
   -.277E+02 0.163E+02 0.360E+01   0.274E+02 -.160E+02 -.430E+01   0.611E+00 -.923E+00 0.144E+01   -.729E-04 0.140E-03 -.141E-03
   -.228E+02 0.133E+02 0.101E+03   0.224E+02 -.128E+02 -.101E+03   0.570E+00 -.774E+00 -.160E+01   -.402E-05 0.104E-03 0.770E-04
   0.983E+01 -.298E+02 -.505E+02   -.972E+01 0.293E+02 0.506E+02   0.144E-01 0.181E+01 0.104E+01   0.351E-04 -.120E-03 -.977E-04
   0.114E+02 0.213E+02 -.260E+02   -.119E+02 -.211E+02 0.257E+02   0.662E+00 -.816E+00 0.715E+00   -.522E-04 0.118E-03 -.481E-04
   -.404E-01 0.529E+02 -.155E+02   -.125E+00 -.524E+02 0.152E+02   0.906E-01 -.105E+01 0.431E+00   -.292E-04 0.528E-04 -.126E-04
   -.487E+02 0.173E+02 0.116E+02   0.492E+02 -.174E+02 -.115E+02   -.590E-01 -.460E+00 -.182E+00   -.475E-05 0.628E-04 -.853E-04
   -.656E+02 0.118E+01 -.703E+02   0.655E+02 -.569E+00 0.698E+02   0.596E+00 -.101E+01 0.114E+01   -.485E-05 0.757E-04 -.307E-04
   -.472E+02 0.137E+02 0.176E+02   0.472E+02 -.138E+02 -.174E+02   0.516E+00 -.124E+00 -.735E+00   -.127E-04 -.715E-04 0.367E-04
   0.241E+02 0.111E+02 0.541E+02   -.243E+02 -.114E+02 -.533E+02   0.935E-01 0.243E+00 -.162E+01   -.481E-04 0.154E-04 0.127E-03
   -.101E+02 0.848E+00 0.403E+01   0.102E+02 -.121E+01 -.376E+01   -.521E-02 0.491E+00 -.277E+00   -.497E-04 -.624E-04 -.984E-05
   -.923E+01 0.222E+02 -.233E+02   0.924E+01 -.222E+02 0.226E+02   -.222E+00 -.160E+00 0.121E+01   0.136E-04 -.138E-04 -.104E-03
   -.410E+02 0.842E+02 -.248E+02   0.410E+02 -.840E+02 0.243E+02   0.330E+00 -.127E+01 0.103E+01   0.201E-04 0.465E-04 -.952E-04
   0.184E+01 -.118E+02 0.519E+02   -.175E+01 0.121E+02 -.507E+02   -.261E+00 -.387E+00 -.203E+01   -.206E-04 0.952E-05 0.118E-03
   0.287E+02 0.426E+01 0.131E+02   -.283E+02 -.452E+01 -.128E+02   -.927E+00 0.784E+00 -.497E+00   0.572E-04 -.182E-03 0.192E-04
   -.136E+02 -.883E-01 0.206E+02   0.135E+02 0.169E+00 -.208E+02   -.505E-01 -.317E+00 0.245E+00   0.726E-04 0.724E-04 0.356E-04
   -.553E+01 0.164E-01 -.137E+02   0.547E+01 0.218E+00 0.134E+02   -.196E+00 -.525E+00 0.567E+00   0.368E-04 0.391E-04 -.304E-04
   -.688E+02 -.577E+02 0.164E+02   0.685E+02 0.575E+02 -.160E+02   0.107E+01 0.783E+00 -.100E+01   -.625E-04 -.397E-05 0.418E-05
   -.849E+02 -.446E+02 0.431E+02   0.849E+02 0.444E+02 -.425E+02   0.710E+00 0.270E+00 -.148E+01   -.545E-04 -.882E-04 0.154E-03
   -.110E+02 -.133E+02 0.276E+02   0.111E+02 0.134E+02 -.273E+02   -.566E-01 0.179E+00 -.521E+00   0.554E-04 -.805E-04 0.298E-05
   -.140E+01 -.208E+01 0.275E+00   0.171E+01 0.234E+01 -.430E-01   -.192E+00 -.235E+00 -.821E-01   -.382E-04 0.311E-04 -.310E-04
   0.606E+02 0.835E+02 0.183E+01   -.599E+02 -.834E+02 -.211E+01   -.138E+01 -.110E+01 0.592E+00   0.500E-04 0.107E-04 -.139E-03
   0.325E+02 0.693E+00 0.809E+02   -.327E+02 -.123E+01 -.811E+02   -.476E-01 0.891E+00 -.674E+00   -.428E-04 -.159E-03 -.696E-05
   -.163E+02 -.207E+02 0.470E+02   0.167E+02 0.203E+02 -.471E+02   -.300E+00 0.152E+01 -.498E+00   -.414E-04 -.180E-03 0.228E-04
   -.913E+01 -.114E+02 0.593E+02   0.924E+01 0.115E+02 -.592E+02   -.866E-01 -.404E-01 -.105E+01   -.550E-04 0.272E-05 0.152E-03
   -.458E+02 0.865E+02 -.803E+02   0.454E+02 -.861E+02 0.800E+02   0.106E+01 -.125E+01 0.102E+01   -.113E-03 -.199E-04 0.398E-05
   0.790E+02 -.279E+02 0.803E+01   -.790E+02 0.275E+02 -.819E+01   -.905E+00 0.106E+01 -.222E-01   0.294E-04 -.105E-03 -.113E-04
   -.600E+02 0.355E+02 -.211E+02   0.602E+02 -.355E+02 0.215E+02   0.316E+00 -.174E+00 -.593E+00   -.271E-04 0.333E-04 0.948E-04
   -.383E+02 0.208E+02 -.833E+02   0.377E+02 -.209E+02 0.835E+02   0.929E+00 0.126E+00 0.820E+00   -.875E-04 -.986E-04 -.992E-04
   -.738E+02 -.369E+02 0.174E+02   0.737E+02 0.362E+02 -.176E+02   0.686E+00 0.161E+01 0.464E+00   -.669E-04 -.195E-03 0.315E-04
   -.742E+02 0.538E+02 -.307E+02   0.740E+02 -.538E+02 0.311E+02   0.918E+00 -.401E+00 -.590E+00   -.198E-03 0.738E-05 0.101E-03
[...]
   -.414E+01 -.234E+02 0.136E+02   0.354E+01 0.236E+02 -.135E+02   0.116E+01 0.210E+00 -.493E+00   -.235E-04 -.428E-04 -.848E-05
   0.380E+02 0.453E+02 -.334E+02   -.378E+02 -.451E+02 0.338E+02   -.533E+00 -.637E+00 -.129E+00   0.597E-04 -.269E-04 0.778E-04
   0.800E+02 -.270E+02 0.175E+02   -.795E+02 0.268E+02 -.180E+02   -.193E+01 0.763E+00 0.810E+00   0.172E-03 -.302E-04 -.104E-03
   0.308E+02 -.359E+02 -.105E+02   -.315E+02 0.361E+02 0.101E+02   0.759E+00 -.154E+00 0.571E+00   -.848E-04 0.904E-04 -.828E-05
   -.550E+02 -.474E+02 -.525E+02   0.553E+02 0.475E+02 0.527E+02   0.533E-01 0.174E+00 0.726E+00   0.482E-04 0.725E-04 -.840E-04
   0.255E+02 -.410E+02 0.319E+02   -.252E+02 0.409E+02 -.312E+02   -.656E+00 0.646E+00 -.183E+01   0.779E-04 0.467E-04 0.179E-03
   0.953E+01 -.699E+02 -.267E+02   -.977E+01 0.699E+02 0.264E+02   0.280E+00 0.107E+01 0.964E+00   -.643E-04 -.136E-04 -.916E-04
   -.299E+01 -.961E+02 -.283E+02   0.338E+01 0.956E+02 0.285E+02   -.241E+00 0.174E+01 0.256E+00   -.329E-04 0.261E-04 0.746E-05
   0.236E+02 -.213E+02 -.245E+02   -.239E+02 0.209E+02 0.247E+02   0.818E-01 0.681E+00 -.764E-01   0.656E-04 -.541E-04 0.239E-04
   -.275E+02 -.403E+02 0.352E+02   0.270E+02 0.404E+02 -.352E+02   0.860E+00 0.200E+00 -.602E+00   -.203E-04 0.705E-04 -.695E-05
   -.399E+02 0.330E+02 -.606E+01   0.397E+02 -.326E+02 0.604E+01   0.682E+00 -.120E+01 -.938E-01   -.125E-03 0.160E-03 0.954E-04
   0.701E+01 -.321E+02 -.902E+01   -.646E+01 0.323E+02 0.872E+01   -.557E+00 0.307E-02 0.780E+00   -.174E-04 0.756E-04 -.967E-04
   0.101E+02 0.199E+02 0.714E+02   -.978E+01 -.198E+02 -.710E+02   0.319E-02 -.979E-01 -.149E+01   0.219E-04 -.453E-04 0.111E-03
   0.864E+02 0.239E+02 -.754E+01   -.863E+02 -.236E+02 0.733E+01   -.150E+01 -.886E+00 0.534E+00   0.117E-03 0.101E-03 -.544E-04
   -.157E+00 0.266E+00 -.481E-01   0.102E-10 0.504E-12 0.426E-12   0.143E+00 -.252E+00 0.705E-01   0.569E-04 0.574E-04 0.201E-04

 POSITION                                       TOTAL-FORCE (eV/Angst)
      0.12542      0.73256      1.45803         0.485144     -0.227133     -0.151264
      0.00355      2.75223      3.65273         0.265682      0.193593     -0.031590
      2.29702      0.67423      3.33888        -0.058249     -0.069820      0.915588
      2.37894      2.73097      1.51952        -1.052264      0.169284      0.239355
      0.06552      0.51868      5.48536        -0.091776      0.774841      0.611454
      0.06148      2.60682      7.68597         0.846098      0.059505     -0.693568
      2.21509      0.47144      7.64985         0.411662      0.909911     -0.310239
      2.15001      2.63789      5.49729        -0.202551     -0.394090      0.282018
      0.41016      0.54348      9.72396        -0.602468      0.886471      0.305067
      0.02127      2.65584     11.77312         0.070115     -0.475714      0.134331
      2.09351      0.43166     11.92505         0.589346      0.916676     -0.402431
      2.30417      2.75629      9.59437        -0.439643     -0.975517      0.284920
      0.03487      4.82694      1.63002        -0.045817     -0.839740     -0.305333
      0.11293      6.82136      3.59131        -0.076365      0.351505      0.504118
      2.29762      4.86747      3.61896        -0.230462     -1.119774     -0.341815
      2.10715      6.68289      1.56785         0.406862      0.413522     -0.727221
      0.32029      4.83363      5.69189        -1.097640     -0.312599     -0.124205
      0.10124      6.97453      7.66515         0.130463     -1.909585     -0.868148
      2.27812      4.72839      7.60506        -0.177432     -0.114115     -0.352769
      2.24953      6.78732      5.54388         0.219202      0.755374      0.444060
      0.22483      4.60425      9.59389        -0.638804      0.746091      0.342875
      0.21170      6.80509     11.77633        -0.024398     -0.417724      0.176395
      1.95164      4.49592     11.91736         0.484726      1.010185     -0.175896
      2.20843      6.62608      9.58214        -1.004941      0.096976      0.591635
      0.23049      8.94298      1.44336         0.207731     -0.261369      0.327404
      0.21995     11.18090      3.45707         0.220146     -1.428426      0.220845
      2.22258      8.84368      3.47244        -0.347039      0.293052      0.958733
      2.34506     10.92812      1.52714        -0.841241     -0.024990      0.444565
     12.21663      8.82596      5.63956         0.451619      0.264113     -0.833959
      0.08492     10.89388      7.70631         0.490860     -0.497106     -0.870617
      2.07485      8.96365      7.39634         0.290548     -0.585155      0.734976
      2.11673     11.02014      5.63265         0.169654     -0.259766     -1.332286
      0.23623      8.69199      9.61780         0.118258      1.265199      1.113061
      0.10631     10.96017     11.78596         0.133162     -0.615717      0.439722
      2.11912      8.95637     11.76709        -0.075262     -0.562653      0.149947
      2.24547     10.88236      9.70993         0.464871     -0.595007     -0.041552
      4.24351      0.69230      1.33945         0.476100     -0.395334      0.692413
      4.34787      2.66577      3.62426         0.491516     -0.203474     -0.493968
      6.43498      0.50560      3.77333        -0.051317     -0.111022     -0.857859
      6.37320      2.50263      1.49410         0.038152      0.123366     -0.003377
      4.28902      0.54197      5.47568        -0.208578     -0.197197      0.575580
      4.23038      2.68656      7.52929         0.243669     -1.126294      0.599294
      6.26574      0.52827      7.94096        -0.163669     -0.115425     -0.863610
      6.49364      2.51953      5.68845        -0.554695      0.526163     -0.256846
      4.15742      0.58851      9.78494        -0.189413     -0.241286      0.017356
      4.17815      2.66535     11.76991        -0.262556     -0.293351      0.227209
      6.19826      0.41381     11.85724         0.747915      0.555308     -0.514784
      6.25972      2.52027      9.93313         0.684633      0.123644     -0.838697
      4.36145      4.66476      1.56516         0.051350      0.249095     -0.243647
      4.34343      6.75395      3.55944         0.122544      0.023626      0.156315
      6.65080      4.81392      3.43399        -0.739587     -0.955568      0.324880
      6.36466      6.63820      1.39503        -0.229837      0.360190     -0.873652
      4.35350      4.52415      5.58910         0.035461      1.074068     -0.586539
      4.24292      6.76127      7.71423         0.027767      0.145959     -0.953365
      6.13140      4.76793      7.67526         0.696771     -0.918264      0.777163
      6.41131      6.56931      5.58058        -0.900550      0.655126     -0.173809
      4.19365      4.69817      9.83427         0.535457     -0.197504     -0.203694
      3.95017      6.66222     11.80102         0.302763      0.037923      0.961918
      6.29377      4.44499     11.80116         0.653623      0.972462      0.264915
      6.10859      6.74630      9.88015         0.704122     -0.364897     -0.195643
[...]
      8.31133      6.82089     11.65090         0.257761     -0.684934      0.094826
     10.42131      4.71666     11.82549         0.566761      0.421390     -0.319832
     10.54154      6.83562      9.77629        -0.395612     -0.493186      0.253995
      8.58922      8.73344      1.28027        -1.489336      0.600348      0.347791
      8.23663     10.76490      3.42836         0.053790     -0.036686      0.159471
     10.43630      8.84524      3.46225         0.384081      0.275730      0.986968
     10.55278     10.83677      1.64330        -0.399576      0.541236     -1.085264
      8.28503      8.61740      5.47097         0.031160      1.025542      0.671463
      8.43506     10.63828      7.72743         0.150408      1.203212      0.455398
     10.31557      8.68312      7.72274        -0.233392      0.269262      0.116604
     10.23375     10.79400      5.66214         0.440932      0.240101     -0.530083
      8.26175      8.93430      9.80147         0.433463     -0.833684     -0.129034
      8.51672     10.83637     11.74190         0.004520      0.206491      0.479650
     10.58013      8.82554     11.92758         0.289551      0.026323     -1.091327
     10.70750     10.91912      9.70377        -1.368799     -0.623838      0.323268
    total drift:                               -0.014131      0.013781      0.022396

  FREE ENERGIE OF THE ION-ELECTRON SYSTEM (eV)
  free  energy   TOTEN  =      -409.11624108 eV

  energy  without entropy=     -409.07746583  energy(sigma->0) =     -409.09685346

 stress matrix after NEB project (eV)
      4.38184     -2.11846     -0.30188
     -2.11846      9.50889      0.92129
     -0.30188      0.92129      6.03826
  FORCES: max atom, RMS     2.506714    1.103678
  FORCE total and by dimension   11.469756    2.053185
  Stress total and by dimension   12.527399    9.508891