 vasp.6.4.2 20Jul23 (build Mar 06 2024 09:06:46) complex

 executed on             LinuxIFC date 2024.03.31  00:08:54

 INCAR:
   SYSTEM = Au_FRESH_TRAIN
   ISMEAR = 0
   SIGMA = 0.05
   IVDW = 12
   ENCUT = 450
   PREC = Accurate
   LASPH = TRUE
   NELM = 400
   NELMIN = 5
   EDIFF = 1E-6
   IBRION = 0
   ISIF = 3
   NSW = 0
   EDIFFG = -0.01
   ALGO = Fast
   LREAL = Auto
   LWAVE = False
   LCHARG = False
   AMIN = 0.01
   ADDGRID = TRUE
   NCORE = 8

 POTCAR:    PAW_PBE Au 04Oct2007
 POTCAR:    PAW_PBE Au 04Oct2007
   VRHFIN =Au: s1d10

   TITEL  = PAW_PBE Au 04Oct2007
   POMASS =  196.966; ZVAL   =   11.000    mass and valenz
   ENMAX  =  229.943; ENMIN  =  172.457 eV

 Optimization of the real space projectors (new method)

 maximal supplied QI-value         = 15.12
 optimisation between [QCUT,QGAM] = [ 10.73, 21.62] = [ 32.26,130.87] Ry
 Optimized for a Real-space Cutoff    1.51 Angstroem

   l    n(q)    QCUT    max X(q) W(low)/X(q) W(high)/X(q)  e(spline)
   2      9    10.734    60.898    0.91E-04    0.24E-03    0.27E-06
   2      9    10.734    58.894    0.92E-04    0.24E-03    0.27E-06
   0     10    10.734   109.617    0.32E-04    0.87E-04    0.14E-06
   0     10    10.734    75.026    0.29E-04    0.84E-04    0.14E-06
   1      9    10.734    16.344    0.16E-03    0.95E-04    0.12E-06
   1      9    10.734    10.160    0.13E-03    0.80E-04    0.97E-07
  PAW_PBE Au 04Oct2007                  :

 POSCAR: System 3
  positions in cartesian coordinates
 exchange correlation table for  LEXCH =        8
   RHO(1)=    0.500       N(1)  =     2000
   RHO(2)=  100.500       N(2)  =     4000

 VTST: version 4.1, (05/19/21)

 CHAIN: initializing optimizer

 OPT: Using VASP Dynamics algorithm
 CHAIN: Read ICHAIN            0

 POSCAR: System 3
  positions in cartesian coordinates

 ion  position               nearest neighbor table
   1  0.000  0.000  0.000-  67 2.93  37 2.93  42 2.93  31 2.94   7 2.94  12 2.94  32 2.94   6 2.94
                             2 2.94
   2  0.167  0.000  0.000-  68 2.93  38 2.93  37 2.93  32 2.94   8 2.94   7 2.94  33 2.94   3 2.94
                             1 2.94
   3  0.333  0.000  0.000-  69 2.93  39 2.93  38 2.93  33 2.94   9 2.94   8 2.94  34 2.94   2 2.94
                             4 2.94
   4  0.500  0.000  0.000-  70 2.93  40 2.93  39 2.93  10 2.94  34 2.94  35 2.94   9 2.94   5 2.94
                             3 2.94
   5  0.667  0.000  0.000-  71 2.93  41 2.93  40 2.93  11 2.94  35 2.94  36 2.94  10 2.94   4 2.94
                             6 2.94
   6  0.833  0.000  0.000-  72 2.93  42 2.93  41 2.93  12 2.94  36 2.94  31 2.94  11 2.94   1 2.94
                             5 2.94
   7  0.000  0.167  0.000-  37 2.93  43 2.93  48 2.93  13 2.94   1 2.94   2 2.94  18 2.94   8 2.94
                            12 2.94
   8  0.167  0.167  0.000-  38 2.93  44 2.93  43 2.93  14 2.94   2 2.94   3 2.94  13 2.94   7 2.94
                             9 2.94
   9  0.333  0.167  0.000-  39 2.93  45 2.93  44 2.93  15 2.94   3 2.94   4 2.94  14 2.94  10 2.94
                             8 2.94
  10  0.500  0.167  0.000-  40 2.93  46 2.93  45 2.93   4 2.94  16 2.94  15 2.94   5 2.94   9 2.94
                            11 2.94
  11  0.667  0.167  0.000-  41 2.93  47 2.93  46 2.93   5 2.94  17 2.94  16 2.94   6 2.94  12 2.94
                            10 2.94
  12  0.833  0.167  0.000-  42 2.93  48 2.93  47 2.93   6 2.94  18 2.94  17 2.94   1 2.94  11 2.94
                             7 2.94
  13  0.000  0.333  0.000-  43 2.93  49 2.93  54 2.93   7 2.94  19 2.94  24 2.94   8 2.94  18 2.94
                            14 2.94
  14  0.167  0.333  0.000-  44 2.93  50 2.93  49 2.93   8 2.94  20 2.94  19 2.94   9 2.94  13 2.94
                            15 2.94
  15  0.333  0.333  0.000-  45 2.93  51 2.93  50 2.93  21 2.94   9 2.94  10 2.94  20 2.94  16 2.94
                            14 2.94
  16  0.500  0.333  0.000-  46 2.93  52 2.93  51 2.93  22 2.94  10 2.94  11 2.94  21 2.94  17 2.94
                            15 2.94
  17  0.667  0.333  0.000-  47 2.93  53 2.93  52 2.93  23 2.94  11 2.94  12 2.94  22 2.94  18 2.94
                            16 2.94
  18  0.833  0.333  0.000-  48 2.93  54 2.93  53 2.93  24 2.94  12 2.94  23 2.94   7 2.94  13 2.94
                            17 2.94
  19  0.000  0.500  0.000-  49 2.93  55 2.93  60 2.93  13 2.94  30 2.94  14 2.94  29 2.94  24 2.94
                            20 2.94
  20  0.167  0.500  0.000-  50 2.93  56 2.93  55 2.93  14 2.94  25 2.94  15 2.94  30 2.94  19 2.94
                            21 2.94
  21  0.333  0.500  0.000-  51 2.93  57 2.93  56 2.93  15 2.94  26 2.94  16 2.94  25 2.94  22 2.94
                            20 2.94
  22  0.500  0.500  0.000-  52 2.93  58 2.93  57 2.93  16 2.94  27 2.94  17 2.94  26 2.94  21 2.94
                            23 2.94
  23  0.667  0.500  0.000-  53 2.93  59 2.93  58 2.93  17 2.94  28 2.94  18 2.94  27 2.94  24 2.94
                            22 2.94
  24  0.833  0.500  0.000-  54 2.93  60 2.93  59 2.93  18 2.94  29 2.94  13 2.94  28 2.94  19 2.94
                            23 2.94
  25  0.167  0.667  0.000-  56 2.93  62 2.93  61 2.93  32 2.94  20 2.94  31 2.94  21 2.94  26 2.94
                            30 2.94
  26  0.333  0.667  0.000-  57 2.93  63 2.93  62 2.93  33 2.94  21 2.94  32 2.94  22 2.94  27 2.94
                            25 2.94
  27  0.500  0.667  0.000-  58 2.93  64 2.93  63 2.93  34 2.94  22 2.94  33 2.94  23 2.94  26 2.94
                            28 2.94
  28  0.667  0.667  0.000-  59 2.93  65 2.93  64 2.93  35 2.94  23 2.94  34 2.94  24 2.94  29 2.94
                            27 2.94
  29  0.833  0.667  0.000-  60 2.93  66 2.93  65 2.93  36 2.94  24 2.94  35 2.94  19 2.94  30 2.94
                            28 2.94
  30  1.000  0.667  0.000-  55 2.93  61 2.93  66 2.93  31 2.94  19 2.94  36 2.94  20 2.94  29 2.94
                            25 2.94
  31  1.000  0.833  0.000-  61 2.93  67 2.93  72 2.93   1 2.94  30 2.94   6 2.94  25 2.94  36 2.94
                            32 2.94
  32  0.167  0.833  0.000-  62 2.93  68 2.93  67 2.93  25 2.94   2 2.94   1 2.94  26 2.94  33 2.94
                            31 2.94
  33  0.333  0.833  0.000-  63 2.93  69 2.93  68 2.93  26 2.94   3 2.94   2 2.94  27 2.94  32 2.94
                            34 2.94
  34  0.500  0.833  0.000-  64 2.93  70 2.93  69 2.93  27 2.94   4 2.94   3 2.94  28 2.94  33 2.94
                            35 2.94
  35  0.667  0.833  0.000-  65 2.93  71 2.93  70 2.93   5 2.94  28 2.94  29 2.94   4 2.94  36 2.94
                            34 2.94
  36  0.833  0.833  0.000-  66 2.93  72 2.93  71 2.93   6 2.94  29 2.94  30 2.94   5 2.94  31 2.94
                            35 2.94
  37  0.056  0.056  0.034-  94 2.89 107 2.90 105 2.90   7 2.93   1 2.93   2 2.93  67 2.94  43 2.94
                            48 2.94  68 2.94  42 2.94  38 2.94
  38  0.222  0.056  0.034-  84 2.82  94 2.89   8 2.93   2 2.93   3 2.93  68 2.94  44 2.94  43 2.94
                            69 2.94  37 2.94  39 2.94 101 2.97
  39  0.389  0.056  0.034-  86 2.83  95 2.90   9 2.93   3 2.93   4 2.93  45 2.94  69 2.94  70 2.94
                            44 2.94  40 2.94  38 2.94 101 2.97
  40  0.556  0.056  0.034-  95 2.89 102 2.90 106 2.91  10 2.93   4 2.93   5 2.93  46 2.94  70 2.94
                            71 2.94  45 2.94  39 2.94  41 2.94
  41  0.722  0.056  0.034- 102 2.89  97 2.90  91 2.91  11 2.93   5 2.93   6 2.93  71 2.94  47 2.94
                            72 2.94  46 2.94  42 2.94  40 2.94
  42  0.889  0.056  0.034-  97 2.89 105 2.89  93 2.92  12 2.93   6 2.93   1 2.93  72 2.94  48 2.94
                            67 2.94  47 2.94  37 2.94  41 2.94
  43  0.056  0.222  0.034-  85 2.83  94 2.90  13 2.93   7 2.93   8 2.93  37 2.94  49 2.94  38 2.94
                            54 2.94  48 2.94  44 2.94 108 2.97
  44  0.222  0.222  0.034-  14 2.93   8 2.93   9 2.93 108 2.94  38 2.94  50 2.94  39 2.94  49 2.94
                            45 2.94  43 2.94 101 2.95 100 2.96
  45  0.389  0.222  0.034-  81 2.84  95 2.89  15 2.93   9 2.93  10 2.93  39 2.94  51 2.94  40 2.94
                            50 2.94  44 2.94  46 2.94 100 2.97
  46  0.556  0.222  0.034-  81 2.83  73 2.83  16 2.93  10 2.93  11 2.93  40 2.94  52 2.94  41 2.94
                            51 2.94  45 2.94  47 2.94 102 2.96
  47  0.722  0.222  0.034-  75 2.82  73 2.82  17 2.93  11 2.93  12 2.93  41 2.94  53 2.94  42 2.94
                            52 2.94  48 2.94  46 2.94  97 2.99
  48  0.889  0.222  0.034-  85 2.82  75 2.83  18 2.93  12 2.93   7 2.93  42 2.94  54 2.94  37 2.94
                            53 2.94  43 2.94  47 2.94 105 2.96
  49  0.056  0.389  0.034-  88 2.83  96 2.90  19 2.93  13 2.93  14 2.93  55 2.94  43 2.94  60 2.94
                            44 2.94  54 2.94  50 2.94 108 2.97
  50  0.222  0.389  0.034-  83 2.84  96 2.89  20 2.93  14 2.93  15 2.93  56 2.94  44 2.94  55 2.94
                            45 2.94  51 2.94  49 2.94 100 2.97
  51  0.389  0.389  0.034-  82 2.81  21 2.93  15 2.93  16 2.93  81 2.94  57 2.94  45 2.94  56 2.94
                            46 2.94  52 2.94  50 2.94  83 2.95
  52  0.556  0.389  0.034-  90 2.81  82 2.83  22 2.93  16 2.93  17 2.93  58 2.94  46 2.94  57 2.94
                            47 2.94  51 2.94  53 2.94  73 2.97
  53  0.722  0.389  0.034-  90 2.81  80 2.83  23 2.93  17 2.93  18 2.93  59 2.94  47 2.94  58 2.94
                            48 2.94  52 2.94  54 2.94  75 2.97
  54  0.889  0.389  0.034-  80 2.80  24 2.93  18 2.93  13 2.93  60 2.94  48 2.94  59 2.94  43 2.94
                            49 2.94  53 2.94  88 2.94  85 2.95
  55  0.056  0.556  0.034-  96 2.88 104 2.90 103 2.91  30 2.93  19 2.93  20 2.93  61 2.94  49 2.94
                            66 2.94  50 2.94  60 2.94  56 2.94
  56  0.222  0.556  0.034-  74 2.82  83 2.83  25 2.93  20 2.93  21 2.93  50 2.94  62 2.94  61 2.94
                            51 2.94  55 2.94  57 2.94 103 2.97
  57  0.389  0.556  0.034-  89 2.82  82 2.84  26 2.93  21 2.93  22 2.93  51 2.94  63 2.94  62 2.94
                            52 2.94  56 2.94  58 2.94  74 2.96
  58  0.556  0.556  0.034-  87 2.84  90 2.85  89 2.86  27 2.93  22 2.93  23 2.93  64 2.94  52 2.94
                            53 2.94  63 2.94  59 2.94  57 2.94
  59  0.722  0.556  0.034-  87 2.81  80 2.83  28 2.93  23 2.93  24 2.93  65 2.94  53 2.94  54 2.94
                            64 2.94  60 2.94  58 2.94  78 2.98
  60  0.889  0.556  0.034-  78 2.82  88 2.83  29 2.93  24 2.93  19 2.93  66 2.94  54 2.94  49 2.94
                            65 2.94  55 2.94  59 2.94 104 2.97
  61  0.056  0.722  0.034- 103 2.89  98 2.89  92 2.91  31 2.93  30 2.93  25 2.93  67 2.94  55 2.94
                            56 2.94  72 2.94  66 2.94  62 2.94
  62  0.222  0.722  0.034-  74 2.81  76 2.82  32 2.93  25 2.93  26 2.93  68 2.94  56 2.94  57 2.94
                            67 2.94  61 2.94  63 2.94  98 2.98
  63  0.389  0.722  0.034-  79 2.82  89 2.86  33 2.93  26 2.93  27 2.93  57 2.94  69 2.94  58 2.94
                            68 2.94  62 2.94  64 2.94  76 2.97
  64  0.556  0.722  0.034-  87 2.80  79 2.83  34 2.93  27 2.93  28 2.93  58 2.94  70 2.94  69 2.94
[...]
   0.209E+02 0.122E+02 0.451E+04   -.207E+02 -.121E+02 -.451E+04   -.108E+00 -.665E-01 -.231E+00   0.189E-05 -.347E-05 -.715E-04
   0.215E+02 -.255E+02 0.454E+04   -.216E+02 0.254E+02 -.453E+04   0.685E-01 0.111E+00 -.463E+00   0.892E-05 -.115E-04 -.575E-04
   -.179E+00 -.451E+02 0.455E+04   0.185E+00 0.451E+02 -.455E+04   -.236E-02 -.453E-01 -.325E+00   0.698E-05 -.128E-04 -.402E-04
   -.215E+02 -.259E+02 0.453E+04   0.216E+02 0.258E+02 -.453E+04   -.676E-01 0.106E+00 -.452E+00   -.302E-05 -.422E-05 -.516E-04
   -.207E+02 0.117E+02 0.451E+04   0.206E+02 -.117E+02 -.451E+04   0.118E+00 -.613E-01 -.230E+00   -.893E-05 0.325E-05 -.664E-04
   0.250E-01 0.298E+02 0.449E+04   -.229E-01 -.298E+02 -.449E+04   -.232E-02 -.106E-01 -.161E+00   -.606E-05 0.217E-05 -.739E-04
   -.115E+02 0.314E+02 0.454E+04   0.113E+02 -.315E+02 -.453E+04   0.123E+00 0.137E-01 -.440E+00   -.174E-05 0.402E-06 -.616E-04
   -.703E+01 -.415E+01 0.452E+04   0.697E+01 0.412E+01 -.452E+04   0.558E-01 0.251E-01 -.517E+00   0.650E-05 -.736E-05 -.468E-04
   0.650E+01 -.433E+01 0.452E+04   -.645E+01 0.428E+01 -.452E+04   -.476E-01 0.386E-01 -.505E+00   0.926E-05 -.676E-05 -.414E-04
   0.116E+02 0.311E+02 0.453E+04   -.114E+02 -.311E+02 -.453E+04   -.129E+00 0.389E-02 -.449E+00   0.677E-06 0.243E-05 -.520E-04
   0.540E+01 0.645E+02 0.454E+04   -.534E+01 -.644E+02 -.454E+04   -.482E-01 -.560E-01 -.447E+00   -.873E-05 0.654E-05 -.639E-04
   -.492E+01 0.647E+02 0.455E+04   0.487E+01 -.646E+02 -.454E+04   0.493E-01 -.584E-01 -.453E+00   -.615E-05 0.519E-05 -.683E-04
   -.393E+02 0.224E+02 0.455E+04   0.394E+02 -.225E+02 -.455E+04   -.428E-01 0.293E-01 -.308E+00   -.420E-05 0.240E-05 -.514E-04
   -.482E+00 0.755E+01 0.452E+04   0.478E+00 -.747E+01 -.452E+04   0.297E-02 -.653E-01 -.509E+00   0.878E-05 -.246E-05 -.474E-04
   0.389E+02 0.222E+02 0.455E+04   -.390E+02 -.222E+02 -.455E+04   0.424E-01 0.246E-01 -.313E+00   0.128E-04 -.452E-06 -.417E-04
   0.367E+02 0.519E+02 0.460E+04   -.367E+02 -.519E+02 -.460E+04   -.395E-01 -.154E-01 -.460E+00   -.220E-05 0.432E-05 -.501E-04
   0.481E+00 0.669E+02 0.462E+04   -.475E+00 -.669E+02 -.462E+04   -.425E-02 0.260E-01 -.453E+00   -.841E-05 0.854E-05 -.579E-04
   -.363E+02 0.523E+02 0.460E+04   0.362E+02 -.523E+02 -.460E+04   0.385E-01 -.131E-01 -.448E+00   -.661E-05 0.659E-05 -.588E-04
   -.335E+02 -.583E+01 0.453E+04   0.334E+02 0.597E+01 -.453E+04   0.572E-01 -.106E+00 -.446E+00   -.211E-05 0.193E-05 -.620E-04
   0.326E+02 -.580E+01 0.453E+04   -.325E+02 0.595E+01 -.453E+04   -.596E-01 -.112E+00 -.456E+00   0.128E-04 -.152E-05 -.578E-04
   0.635E+02 0.524E+01 0.460E+04   -.634E+02 -.519E+01 -.460E+04   -.393E-01 -.219E-01 -.452E+00   0.942E-05 -.313E-05 -.506E-04
   0.314E+02 0.174E+02 0.466E+04   -.313E+02 -.174E+02 -.466E+04   -.139E-01 -.391E-02 -.409E+00   -.243E-05 0.304E-05 -.546E-04
   -.303E+02 0.176E+02 0.466E+04   0.303E+02 -.176E+02 -.466E+04   0.165E-01 -.637E-02 -.396E+00   -.892E-05 0.611E-05 -.585E-04
   -.636E+02 0.532E+01 0.460E+04   0.635E+02 -.526E+01 -.460E+04   0.376E-01 -.302E-01 -.448E+00   -.881E-05 0.355E-05 -.591E-04
   0.583E+02 -.275E+02 0.454E+04   -.582E+02 0.275E+02 -.454E+04   -.640E-01 -.214E-01 -.429E+00   0.112E-04 -.429E-05 -.649E-04
   0.580E+02 -.331E+02 0.462E+04   -.580E+02 0.331E+02 -.462E+04   0.188E-01 -.126E-01 -.455E+00   0.919E-05 -.394E-05 -.533E-04
   0.731E+00 -.355E+02 0.466E+04   -.738E+00 0.354E+02 -.466E+04   0.655E-02 0.294E-01 -.412E+00   -.290E-05 0.277E-05 -.537E-04
   -.578E+02 -.335E+02 0.462E+04   0.578E+02 0.336E+02 -.462E+04   -.256E-01 -.149E-01 -.441E+00   -.114E-04 0.483E-05 -.573E-04
   -.588E+02 -.278E+02 0.455E+04   0.587E+02 0.278E+02 -.455E+04   0.674E-01 -.198E-01 -.443E+00   -.850E-05 0.398E-05 -.682E-04
   -.456E+00 -.238E+02 0.451E+04   0.449E+00 0.236E+02 -.451E+04   0.678E-02 0.125E+00 -.242E+00   0.224E-05 0.906E-06 -.711E-04
   0.257E+02 -.146E+02 0.449E+04   -.256E+02 0.146E+02 -.449E+04   -.827E-02 0.694E-02 -.186E+00   0.324E-05 -.187E-05 -.741E-04
   0.534E+02 -.363E+02 0.454E+04   -.533E+02 0.362E+02 -.454E+04   -.214E-01 0.729E-01 -.438E+00   0.108E-04 -.671E-05 -.644E-04
   0.272E+02 -.571E+02 0.460E+04   -.272E+02 0.570E+02 -.460E+04   0.443E-02 0.203E-01 -.414E+00   0.881E-05 -.558E-05 -.493E-04
   -.268E+02 -.577E+02 0.460E+04   0.269E+02 0.576E+02 -.460E+04   -.315E-02 0.519E-01 -.453E+00   -.510E-05 0.133E-06 -.480E-04
   -.533E+02 -.370E+02 0.455E+04   0.533E+02 0.369E+02 -.455E+04   0.150E-01 0.662E-01 -.436E+00   -.108E-04 0.387E-05 -.629E-04
   -.260E+02 -.149E+02 0.449E+04   0.260E+02 0.149E+02 -.449E+04   0.804E-02 0.776E-02 -.179E+00   -.662E-05 0.323E-05 -.737E-04
   0.361E+02 0.207E+02 0.233E+04   -.361E+02 -.207E+02 -.233E+04   -.229E-02 0.631E-02 -.508E-01   0.135E-04 -.228E-05 -.890E-04
   0.115E+02 -.859E+02 0.238E+04   -.114E+02 0.856E+02 -.238E+04   0.471E-01 0.412E+00 -.636E+00   0.182E-04 -.152E-04 -.767E-04
   -.127E+02 -.849E+02 0.238E+04   0.126E+02 0.846E+02 -.238E+04   -.383E-01 0.401E+00 -.608E+00   -.103E-05 -.106E-04 -.764E-04
   -.356E+02 0.203E+02 0.233E+04   0.356E+02 -.203E+02 -.233E+04   0.170E-03 -.207E-01 -.416E-01   -.147E-04 0.648E-05 -.882E-04
   -.146E+02 0.102E+03 0.230E+04   0.146E+02 -.103E+03 -.230E+04   0.372E-01 0.159E+00 0.268E-01   -.138E-04 0.111E-04 -.958E-04
   0.150E+02 0.104E+03 0.230E+04   -.149E+02 -.104E+03 -.230E+04   -.319E-01 0.157E+00 0.353E-01   -.210E-05 0.703E-05 -.964E-04
   -.681E+02 0.522E+02 0.238E+04   0.679E+02 -.519E+02 -.238E+04   0.375E+00 -.169E+00 -.616E+00   0.457E-05 0.276E-05 -.778E-04
   -.149E+01 -.117E+01 0.232E+04   0.148E+01 0.118E+01 -.232E+04   0.173E-01 -.262E-02 -.271E+00   0.126E-04 -.797E-05 -.712E-04
   0.673E+02 0.515E+02 0.238E+04   -.671E+02 -.513E+02 -.237E+04   -.352E+00 -.133E+00 -.583E+00   0.698E-05 0.394E-05 -.757E-04
   0.478E+02 0.158E+03 0.245E+04   -.477E+02 -.158E+03 -.245E+04   -.164E+00 -.428E+00 -.957E+00   -.122E-04 0.124E-04 -.860E-04
   0.964E+00 0.203E+03 0.248E+04   -.955E+00 -.203E+03 -.248E+04   -.933E-02 -.493E+00 -.109E+01   -.110E-04 0.130E-04 -.912E-04
   -.471E+02 0.159E+03 0.245E+04   0.470E+02 -.158E+03 -.245E+04   0.158E+00 -.417E+00 -.973E+00   -.465E-06 0.105E-04 -.877E-04
   -.809E+02 0.321E+02 0.238E+04   0.806E+02 -.320E+02 -.238E+04   0.336E+00 -.242E+00 -.628E+00   -.590E-06 -.538E-05 -.779E-04
   0.782E+02 0.320E+02 0.237E+04   -.779E+02 -.318E+02 -.237E+04   -.303E+00 -.240E+00 -.577E+00   0.200E-04 -.837E-05 -.763E-04
   0.143E+03 0.807E+02 0.252E+04   -.143E+03 -.806E+02 -.252E+04   -.251E+00 -.134E+00 -.948E+00   0.222E-05 -.372E-05 -.812E-04
   0.628E+02 0.141E+03 0.264E+04   -.627E+02 -.141E+03 -.264E+04   -.108E+00 -.327E+00 -.105E+01   -.110E-04 0.539E-05 -.849E-04
   -.603E+02 0.142E+03 0.265E+04   0.602E+02 -.142E+03 -.264E+04   0.846E-01 -.322E+00 -.106E+01   -.819E-05 0.754E-05 -.859E-04
   -.143E+03 0.825E+02 0.252E+04   0.143E+03 -.824E+02 -.252E+04   0.288E+00 -.168E+00 -.958E+00   -.249E-05 0.169E-05 -.843E-04
   -.129E+01 -.414E+02 0.233E+04   0.129E+01 0.414E+02 -.233E+04   0.177E-03 -.822E-04 -.376E-01   0.718E-05 -.959E-05 -.889E-04
   0.161E+03 -.371E+02 0.245E+04   -.160E+03 0.371E+02 -.245E+04   -.469E+00 0.479E-01 -.966E+00   0.176E-04 -.122E-04 -.857E-04
   0.153E+03 -.190E+02 0.264E+04   -.152E+03 0.190E+02 -.264E+04   -.313E+00 0.511E-01 -.102E+01   0.303E-05 -.345E-05 -.842E-04
   0.355E+01 -.196E+01 0.274E+04   -.357E+01 0.197E+01 -.273E+04   -.223E-01 -.241E-02 -.102E+01   -.761E-05 0.613E-05 -.860E-04
   -.154E+03 -.185E+02 0.264E+04   0.154E+03 0.185E+02 -.264E+04   0.343E+00 0.708E-01 -.104E+01   -.106E-04 0.551E-05 -.859E-04
   -.162E+03 -.378E+02 0.245E+04   0.161E+03 0.378E+02 -.245E+04   0.483E+00 0.545E-01 -.100E+01   -.945E-05 -.334E-05 -.878E-04
[...]
   -.636E+02 -.486E+01 -.460E+04   0.636E+02 0.481E+01 0.460E+04   0.349E-01 0.268E-01 0.452E+00   -.471E-05 -.838E-05 0.832E-04
   -.320E+02 0.620E+01 -.453E+04   0.319E+02 -.635E+01 0.453E+04   0.424E-01 0.110E+00 0.430E+00   0.565E-06 -.141E-04 0.811E-04
   0.396E+02 -.223E+02 -.455E+04   -.396E+02 0.223E+02 0.455E+04   0.474E-01 -.234E-01 0.322E+00   0.528E-05 -.972E-05 0.793E-04
   0.360E+02 -.519E+02 -.460E+04   -.360E+02 0.519E+02 0.460E+04   -.415E-01 0.200E-01 0.438E+00   0.123E-04 -.521E-05 0.855E-04
   -.907E+00 -.664E+02 -.462E+04   0.905E+00 0.664E+02 0.462E+04   0.152E-02 -.292E-01 0.435E+00   0.962E-06 -.356E-05 0.837E-04
   -.372E+02 -.517E+02 -.460E+04   0.371E+02 0.517E+02 0.460E+04   0.457E-01 0.157E-01 0.449E+00   -.118E-04 -.415E-05 0.845E-04
   -.387E+02 -.220E+02 -.455E+04   0.387E+02 0.220E+02 0.455E+04   -.422E-01 -.190E-01 0.309E+00   -.652E-05 -.906E-05 0.787E-04
   0.120E+01 -.744E+01 -.452E+04   -.118E+01 0.737E+01 0.452E+04   -.152E-01 0.577E-01 0.524E+00   -.342E-06 -.127E-04 0.705E-04
   0.116E+02 -.322E+02 -.454E+04   -.114E+02 0.322E+02 0.454E+04   -.132E+00 0.110E-02 0.452E+00   0.128E-04 0.455E-06 0.863E-04
   0.481E+01 -.651E+02 -.455E+04   -.475E+01 0.651E+02 0.455E+04   -.536E-01 0.497E-01 0.433E+00   0.858E-05 -.111E-05 0.893E-04
   -.598E+01 -.647E+02 -.455E+04   0.592E+01 0.646E+02 0.455E+04   0.550E-01 0.487E-01 0.434E+00   -.638E-05 -.948E-06 0.891E-04
   -.118E+02 -.311E+02 -.453E+04   0.116E+02 0.311E+02 0.453E+04   0.124E+00 -.217E-02 0.438E+00   -.130E-04 0.148E-05 0.858E-04
   -.614E+01 0.405E+01 -.452E+04   0.608E+01 -.400E+01 0.452E+04   0.578E-01 -.358E-01 0.497E+00   -.699E-05 -.288E-05 0.742E-04
   0.750E+01 0.340E+01 -.452E+04   -.742E+01 -.339E+01 0.452E+04   -.655E-01 -.812E-02 0.511E+00   0.512E-05 -.370E-05 0.742E-04
   -.505E+00 0.468E+00 -.138E-01   0.392E-11 -.320E-11 0.210E-09   0.523E+00 -.450E+00 -.855E-01   0.480E-05 -.756E-06 -.343E-02

 POSITION                                       TOTAL-FORCE (eV/Angst)
      0.00000      0.00000      0.00000         0.023892      0.014886      0.153647
      2.94416      0.00000      0.00000        -0.027633     -0.028686      0.095746
      5.88832      0.00000      0.00000         0.002596     -0.001025      0.104038
      8.83249      0.00000      0.00000         0.024366     -0.023079      0.096094
     11.77665      0.00000      0.00000        -0.024156      0.012759      0.153306
     14.72081      0.00000      0.00000        -0.000206     -0.001495      0.140215
      1.47199      2.54764      0.00000        -0.035079     -0.008873      0.098293
      4.41615      2.54764      0.00000        -0.008662     -0.003354      0.148331
      7.36031      2.54764      0.00000         0.006840     -0.008077      0.148850
     10.30447      2.54764      0.00000         0.036735     -0.010198      0.097935
     13.24863      2.54764      0.00000         0.006774      0.040765      0.062732
     16.19279      2.54764      0.00000        -0.008815      0.042269      0.063647
      2.94397      5.09528      0.00000        -0.001285      0.000647      0.106648
      5.88813      5.09528      0.00000        -0.001326      0.010088      0.144966
      8.83230      5.09528      0.00000         0.001124      0.001075      0.107903
     11.77646      5.09528      0.00000         0.032646      0.009132      0.016151
     14.72062      5.09528      0.00000         0.001871      0.015305      0.003061
     17.66478      5.09528      0.00000        -0.035609      0.006882      0.016263
      4.41596      7.64292      0.00000        -0.010261      0.033911      0.096031
      7.36012      7.64292      0.00000         0.009709      0.035057      0.097707
     10.30428      7.64292      0.00000         0.023319      0.025671      0.014892
     13.24844      7.64292      0.00000         0.013005      0.007879      0.016564
     16.19261      7.64292      0.00000        -0.013301      0.008032      0.011184
     19.13677      7.64292      0.00000        -0.024520      0.027598      0.013288
      8.83211     10.19057      0.00000         0.040256     -0.014314      0.060306
     11.77627     10.19057      0.00000         0.011479     -0.005520      0.000844
     14.72043     10.19057      0.00000        -0.000325     -0.014277      0.013296
     17.66459     10.19057      0.00000        -0.010835     -0.005079     -0.000535
     20.60875     10.19057      0.00000        -0.041315     -0.015917      0.061489
     23.55290     10.19057      0.00000        -0.000506     -0.025713      0.155946
     25.02489     12.73821      0.00000        -0.001206      0.000982      0.137357
     10.30409     12.73821      0.00000         0.033279     -0.029344      0.062044
     13.24825     12.73821      0.00000        -0.011446     -0.029721      0.012078
     16.19241     12.73821      0.00000         0.010300     -0.035708      0.015256
     19.13658     12.73821      0.00000        -0.034499     -0.027035      0.059939
     22.08074     12.73821      0.00000         0.001081      0.002214      0.137486
      1.47205      0.84916      2.39133         0.009928      0.010353     -0.164692
      4.41621      0.84916      2.39133         0.121508      0.049009     -0.166007
      7.36038      0.84916      2.39133        -0.112851      0.022727     -0.137505
     10.30454      0.84916      2.39133        -0.012052      0.003037     -0.151396
     13.24870      0.84916      2.39133         0.005681     -0.061098     -0.204989
     16.19286      0.84916      2.39133        -0.000203     -0.069390     -0.200294
      2.94404      3.39680      2.39133         0.084336      0.087275     -0.137430
      5.88820      3.39680      2.39133         0.007980      0.004194      0.187393
      8.83236      3.39680      2.39133        -0.076148      0.095783     -0.125819
     11.77652      3.39680      2.39133         0.016924     -0.008545     -0.201993
     14.72069      3.39680      2.39133         0.000134     -0.039495     -0.191474
     17.66485      3.39680      2.39133        -0.015648     -0.014244     -0.218099
      4.41602      5.94445      2.39133        -0.020753     -0.118045     -0.141024
      7.36019      5.94445      2.39133         0.044363     -0.115507     -0.120953
     10.30435      5.94445      2.39133        -0.094939     -0.045066     -0.093776
     13.24851      5.94445      2.39133        -0.023573     -0.097366     -0.178295
     16.19267      5.94445      2.39133         0.014220     -0.099768     -0.196782
     19.13683      5.94445      2.39133         0.103038     -0.059913     -0.099560
      5.88801      8.49209      2.39133         0.001146     -0.007895     -0.157673
      8.83217      8.49209      2.39133        -0.010927      0.003460     -0.205018
     11.77633      8.49209      2.39133        -0.060342      0.030328     -0.140283
     14.72050      8.49209      2.39133        -0.034630      0.007622     -0.212002
     17.66466      8.49209      2.39133         0.094894      0.033517     -0.172770
     20.60882      8.49209      2.39133         0.017916      0.013448     -0.227825
[...]
     16.19258      9.34050     33.59462        -0.013424     -0.007939     -0.017406
     19.13674      9.34050     33.59462        -0.023380     -0.027217     -0.018934
     22.08090      9.34050     33.59462        -0.008084     -0.037022     -0.100802
      8.83209     11.88814     33.59462        -0.000277     -0.000568     -0.107357
     11.77625     11.88814     33.59462         0.037309     -0.007841     -0.017905
     14.72041     11.88814     33.59462        -0.000644     -0.012483     -0.002904
     17.66457     11.88814     33.59462        -0.035303     -0.006741     -0.014547
     20.60873     11.88814     33.59462        -0.000302     -0.001959     -0.112191
     23.55289     11.88814     33.59462         0.004721     -0.007914     -0.150670
     10.30407     14.43578     33.59462         0.034073      0.005646     -0.101735
     13.24824     14.43578     33.59462         0.006651     -0.045807     -0.064864
     16.19240     14.43578     33.59462        -0.007528     -0.044719     -0.065093
     19.13655     14.43578     33.59462        -0.033104      0.008081     -0.101211
     22.08071     14.43578     33.59462        -0.010262      0.006866     -0.153142
     25.02488     14.43578     33.59462         0.012029     -0.001863     -0.151947
    total drift:                                0.017973      0.018386     -0.102744

  FREE ENERGIE OF THE ION-ELECTRON SYSTEM (eV)
  free  energy   TOTEN  =      -984.84490854 eV

  energy  without entropy=     -984.62753659  energy(sigma->0) =     -984.73622257

 stress matrix after NEB project (eV)
   -213.79068     -1.03584     -2.69449
     -1.03584   -215.92860      0.34880
     -2.69449      0.34880      1.15443
  FORCES: max atom, RMS     0.341864    0.139241
  FORCE total and by dimension    2.354782    0.257479
  Stress total and by dimension  303.891188  215.928596